&bands
outdir = '/home/ftanzim/Fe-qe/out',
prefix = 'fe',
filband = 'bands.dat'
/
