num_wann= 22
num_bands= 36
Begin Projections
Mo: dz2;dxz;dyz;dx2-y2;dxy
S: px;py;pz
End Projections

spinors= True
write_hr= True
write_xyz=True
translate_home_cell= True
use_ws_distance= False

guiding_centres=True
num_guide_cycles= 5
trial_step= 1.3
num_cg_steps= 200

num_print_cycles= 50
num_iter= 5000

begin atoms_frac
Mo 0.666666666 0.3333333330000001 0.0
S 0.333333333 0.666666666 0.10303226879999997
S 0.333333333 0.666666666 -0.10303226879999997
end atoms_frac

fermi_energy= -5.86088043116694
dis_win_min= -15.86088043116694
dis_num_iter= 2000
conv_window= 2
conv_tol= 1e-5
bands_plot= True
kpath= True
kpath_task= bands
kpath_bands_colour= spin
kpath_num_points= 500
begin kpoint_path
        G 0.0  0.0  0.0  M  0.5  0.0  0.0
        M 0.5  0.0  0.0  K  0.33333333333 0.3333333333 0.0
        K 0.3333333333 0.3333333333 0.0 G 0.0 0.0 0.0
end kpoint_path
begin unit_cell_cart
Bohr
        6.034995104597642  0.0 0.0
        -3.017497552298821  5.226459072296653 0.0
        0.0  0.0 28.69589546656583
end unit_cell_cart

mp_grid= 18 18 1

begin kpoints
  0.00000000  0.00000000  0.00000000  3.086420e-03
  0.00000000  0.05555556  0.00000000  3.086420e-03
  0.00000000  0.11111111  0.00000000  3.086420e-03
  0.00000000  0.16666667  0.00000000  3.086420e-03
  0.00000000  0.22222222  0.00000000  3.086420e-03
  0.00000000  0.27777778  0.00000000  3.086420e-03
  0.00000000  0.33333333  0.00000000  3.086420e-03
  0.00000000  0.38888889  0.00000000  3.086420e-03
  0.00000000  0.44444444  0.00000000  3.086420e-03
  0.00000000  0.50000000  0.00000000  3.086420e-03
  0.00000000  0.55555556  0.00000000  3.086420e-03
  0.00000000  0.61111111  0.00000000  3.086420e-03
  0.00000000  0.66666667  0.00000000  3.086420e-03
  0.00000000  0.72222222  0.00000000  3.086420e-03
  0.00000000  0.77777778  0.00000000  3.086420e-03
  0.00000000  0.83333333  0.00000000  3.086420e-03
  0.00000000  0.88888889  0.00000000  3.086420e-03
  0.00000000  0.94444444  0.00000000  3.086420e-03
  0.05555556  0.00000000  0.00000000  3.086420e-03
  0.05555556  0.05555556  0.00000000  3.086420e-03
  0.05555556  0.11111111  0.00000000  3.086420e-03
  0.05555556  0.16666667  0.00000000  3.086420e-03
  0.05555556  0.22222222  0.00000000  3.086420e-03
  0.05555556  0.27777778  0.00000000  3.086420e-03
  0.05555556  0.33333333  0.00000000  3.086420e-03
  0.05555556  0.38888889  0.00000000  3.086420e-03
  0.05555556  0.44444444  0.00000000  3.086420e-03
  0.05555556  0.50000000  0.00000000  3.086420e-03
  0.05555556  0.55555556  0.00000000  3.086420e-03
  0.05555556  0.61111111  0.00000000  3.086420e-03
  0.05555556  0.66666667  0.00000000  3.086420e-03
  0.05555556  0.72222222  0.00000000  3.086420e-03
  0.05555556  0.77777778  0.00000000  3.086420e-03
  0.05555556  0.83333333  0.00000000  3.086420e-03
  0.05555556  0.88888889  0.00000000  3.086420e-03
  0.05555556  0.94444444  0.00000000  3.086420e-03
  0.11111111  0.00000000  0.00000000  3.086420e-03
  0.11111111  0.05555556  0.00000000  3.086420e-03
  0.11111111  0.11111111  0.00000000  3.086420e-03
  0.11111111  0.16666667  0.00000000  3.086420e-03
  0.11111111  0.22222222  0.00000000  3.086420e-03
  0.11111111  0.27777778  0.00000000  3.086420e-03
  0.11111111  0.33333333  0.00000000  3.086420e-03
  0.11111111  0.38888889  0.00000000  3.086420e-03
  0.11111111  0.44444444  0.00000000  3.086420e-03
  0.11111111  0.50000000  0.00000000  3.086420e-03
  0.11111111  0.55555556  0.00000000  3.086420e-03
  0.11111111  0.61111111  0.00000000  3.086420e-03
  0.11111111  0.66666667  0.00000000  3.086420e-03
  0.11111111  0.72222222  0.00000000  3.086420e-03
  0.11111111  0.77777778  0.00000000  3.086420e-03
  0.11111111  0.83333333  0.00000000  3.086420e-03
  0.11111111  0.88888889  0.00000000  3.086420e-03
  0.11111111  0.94444444  0.00000000  3.086420e-03
  0.16666667  0.00000000  0.00000000  3.086420e-03
  0.16666667  0.05555556  0.00000000  3.086420e-03
  0.16666667  0.11111111  0.00000000  3.086420e-03
  0.16666667  0.16666667  0.00000000  3.086420e-03
  0.16666667  0.22222222  0.00000000  3.086420e-03
  0.16666667  0.27777778  0.00000000  3.086420e-03
  0.16666667  0.33333333  0.00000000  3.086420e-03
  0.16666667  0.38888889  0.00000000  3.086420e-03
  0.16666667  0.44444444  0.00000000  3.086420e-03
  0.16666667  0.50000000  0.00000000  3.086420e-03
  0.16666667  0.55555556  0.00000000  3.086420e-03
  0.16666667  0.61111111  0.00000000  3.086420e-03
  0.16666667  0.66666667  0.00000000  3.086420e-03
  0.16666667  0.72222222  0.00000000  3.086420e-03
  0.16666667  0.77777778  0.00000000  3.086420e-03
  0.16666667  0.83333333  0.00000000  3.086420e-03
  0.16666667  0.88888889  0.00000000  3.086420e-03
  0.16666667  0.94444444  0.00000000  3.086420e-03
  0.22222222  0.00000000  0.00000000  3.086420e-03
  0.22222222  0.05555556  0.00000000  3.086420e-03
  0.22222222  0.11111111  0.00000000  3.086420e-03
  0.22222222  0.16666667  0.00000000  3.086420e-03
  0.22222222  0.22222222  0.00000000  3.086420e-03
  0.22222222  0.27777778  0.00000000  3.086420e-03
  0.22222222  0.33333333  0.00000000  3.086420e-03
  0.22222222  0.38888889  0.00000000  3.086420e-03
  0.22222222  0.44444444  0.00000000  3.086420e-03
  0.22222222  0.50000000  0.00000000  3.086420e-03
  0.22222222  0.55555556  0.00000000  3.086420e-03
  0.22222222  0.61111111  0.00000000  3.086420e-03
  0.22222222  0.66666667  0.00000000  3.086420e-03
  0.22222222  0.72222222  0.00000000  3.086420e-03
  0.22222222  0.77777778  0.00000000  3.086420e-03
  0.22222222  0.83333333  0.00000000  3.086420e-03
  0.22222222  0.88888889  0.00000000  3.086420e-03
  0.22222222  0.94444444  0.00000000  3.086420e-03
  0.27777778  0.00000000  0.00000000  3.086420e-03
  0.27777778  0.05555556  0.00000000  3.086420e-03
  0.27777778  0.11111111  0.00000000  3.086420e-03
  0.27777778  0.16666667  0.00000000  3.086420e-03
  0.27777778  0.22222222  0.00000000  3.086420e-03
  0.27777778  0.27777778  0.00000000  3.086420e-03
  0.27777778  0.33333333  0.00000000  3.086420e-03
  0.27777778  0.38888889  0.00000000  3.086420e-03
  0.27777778  0.44444444  0.00000000  3.086420e-03
  0.27777778  0.50000000  0.00000000  3.086420e-03
  0.27777778  0.55555556  0.00000000  3.086420e-03
  0.27777778  0.61111111  0.00000000  3.086420e-03
  0.27777778  0.66666667  0.00000000  3.086420e-03
  0.27777778  0.72222222  0.00000000  3.086420e-03
  0.27777778  0.77777778  0.00000000  3.086420e-03
  0.27777778  0.83333333  0.00000000  3.086420e-03
  0.27777778  0.88888889  0.00000000  3.086420e-03
  0.27777778  0.94444444  0.00000000  3.086420e-03
  0.33333333  0.00000000  0.00000000  3.086420e-03
  0.33333333  0.05555556  0.00000000  3.086420e-03
  0.33333333  0.11111111  0.00000000  3.086420e-03
  0.33333333  0.16666667  0.00000000  3.086420e-03
  0.33333333  0.22222222  0.00000000  3.086420e-03
  0.33333333  0.27777778  0.00000000  3.086420e-03
  0.33333333  0.33333333  0.00000000  3.086420e-03
  0.33333333  0.38888889  0.00000000  3.086420e-03
  0.33333333  0.44444444  0.00000000  3.086420e-03
  0.33333333  0.50000000  0.00000000  3.086420e-03
  0.33333333  0.55555556  0.00000000  3.086420e-03
  0.33333333  0.61111111  0.00000000  3.086420e-03
  0.33333333  0.66666667  0.00000000  3.086420e-03
  0.33333333  0.72222222  0.00000000  3.086420e-03
  0.33333333  0.77777778  0.00000000  3.086420e-03
  0.33333333  0.83333333  0.00000000  3.086420e-03
  0.33333333  0.88888889  0.00000000  3.086420e-03
  0.33333333  0.94444444  0.00000000  3.086420e-03
  0.38888889  0.00000000  0.00000000  3.086420e-03
  0.38888889  0.05555556  0.00000000  3.086420e-03
  0.38888889  0.11111111  0.00000000  3.086420e-03
  0.38888889  0.16666667  0.00000000  3.086420e-03
  0.38888889  0.22222222  0.00000000  3.086420e-03
  0.38888889  0.27777778  0.00000000  3.086420e-03
  0.38888889  0.33333333  0.00000000  3.086420e-03
  0.38888889  0.38888889  0.00000000  3.086420e-03
  0.38888889  0.44444444  0.00000000  3.086420e-03
  0.38888889  0.50000000  0.00000000  3.086420e-03
  0.38888889  0.55555556  0.00000000  3.086420e-03
  0.38888889  0.61111111  0.00000000  3.086420e-03
  0.38888889  0.66666667  0.00000000  3.086420e-03
  0.38888889  0.72222222  0.00000000  3.086420e-03
  0.38888889  0.77777778  0.00000000  3.086420e-03
  0.38888889  0.83333333  0.00000000  3.086420e-03
  0.38888889  0.88888889  0.00000000  3.086420e-03
  0.38888889  0.94444444  0.00000000  3.086420e-03
  0.44444444  0.00000000  0.00000000  3.086420e-03
  0.44444444  0.05555556  0.00000000  3.086420e-03
  0.44444444  0.11111111  0.00000000  3.086420e-03
  0.44444444  0.16666667  0.00000000  3.086420e-03
  0.44444444  0.22222222  0.00000000  3.086420e-03
  0.44444444  0.27777778  0.00000000  3.086420e-03
  0.44444444  0.33333333  0.00000000  3.086420e-03
  0.44444444  0.38888889  0.00000000  3.086420e-03
  0.44444444  0.44444444  0.00000000  3.086420e-03
  0.44444444  0.50000000  0.00000000  3.086420e-03
  0.44444444  0.55555556  0.00000000  3.086420e-03
  0.44444444  0.61111111  0.00000000  3.086420e-03
  0.44444444  0.66666667  0.00000000  3.086420e-03
  0.44444444  0.72222222  0.00000000  3.086420e-03
  0.44444444  0.77777778  0.00000000  3.086420e-03
  0.44444444  0.83333333  0.00000000  3.086420e-03
  0.44444444  0.88888889  0.00000000  3.086420e-03
  0.44444444  0.94444444  0.00000000  3.086420e-03
  0.50000000  0.00000000  0.00000000  3.086420e-03
  0.50000000  0.05555556  0.00000000  3.086420e-03
  0.50000000  0.11111111  0.00000000  3.086420e-03
  0.50000000  0.16666667  0.00000000  3.086420e-03
  0.50000000  0.22222222  0.00000000  3.086420e-03
  0.50000000  0.27777778  0.00000000  3.086420e-03
  0.50000000  0.33333333  0.00000000  3.086420e-03
  0.50000000  0.38888889  0.00000000  3.086420e-03
  0.50000000  0.44444444  0.00000000  3.086420e-03
  0.50000000  0.50000000  0.00000000  3.086420e-03
  0.50000000  0.55555556  0.00000000  3.086420e-03
  0.50000000  0.61111111  0.00000000  3.086420e-03
  0.50000000  0.66666667  0.00000000  3.086420e-03
  0.50000000  0.72222222  0.00000000  3.086420e-03
  0.50000000  0.77777778  0.00000000  3.086420e-03
  0.50000000  0.83333333  0.00000000  3.086420e-03
  0.50000000  0.88888889  0.00000000  3.086420e-03
  0.50000000  0.94444444  0.00000000  3.086420e-03
  0.55555556  0.00000000  0.00000000  3.086420e-03
  0.55555556  0.05555556  0.00000000  3.086420e-03
  0.55555556  0.11111111  0.00000000  3.086420e-03
  0.55555556  0.16666667  0.00000000  3.086420e-03
  0.55555556  0.22222222  0.00000000  3.086420e-03
  0.55555556  0.27777778  0.00000000  3.086420e-03
  0.55555556  0.33333333  0.00000000  3.086420e-03
  0.55555556  0.38888889  0.00000000  3.086420e-03
  0.55555556  0.44444444  0.00000000  3.086420e-03
  0.55555556  0.50000000  0.00000000  3.086420e-03
  0.55555556  0.55555556  0.00000000  3.086420e-03
  0.55555556  0.61111111  0.00000000  3.086420e-03
  0.55555556  0.66666667  0.00000000  3.086420e-03
  0.55555556  0.72222222  0.00000000  3.086420e-03
  0.55555556  0.77777778  0.00000000  3.086420e-03
  0.55555556  0.83333333  0.00000000  3.086420e-03
  0.55555556  0.88888889  0.00000000  3.086420e-03
  0.55555556  0.94444444  0.00000000  3.086420e-03
  0.61111111  0.00000000  0.00000000  3.086420e-03
  0.61111111  0.05555556  0.00000000  3.086420e-03
  0.61111111  0.11111111  0.00000000  3.086420e-03
  0.61111111  0.16666667  0.00000000  3.086420e-03
  0.61111111  0.22222222  0.00000000  3.086420e-03
  0.61111111  0.27777778  0.00000000  3.086420e-03
  0.61111111  0.33333333  0.00000000  3.086420e-03
  0.61111111  0.38888889  0.00000000  3.086420e-03
  0.61111111  0.44444444  0.00000000  3.086420e-03
  0.61111111  0.50000000  0.00000000  3.086420e-03
  0.61111111  0.55555556  0.00000000  3.086420e-03
  0.61111111  0.61111111  0.00000000  3.086420e-03
  0.61111111  0.66666667  0.00000000  3.086420e-03
  0.61111111  0.72222222  0.00000000  3.086420e-03
  0.61111111  0.77777778  0.00000000  3.086420e-03
  0.61111111  0.83333333  0.00000000  3.086420e-03
  0.61111111  0.88888889  0.00000000  3.086420e-03
  0.61111111  0.94444444  0.00000000  3.086420e-03
  0.66666667  0.00000000  0.00000000  3.086420e-03
  0.66666667  0.05555556  0.00000000  3.086420e-03
  0.66666667  0.11111111  0.00000000  3.086420e-03
  0.66666667  0.16666667  0.00000000  3.086420e-03
  0.66666667  0.22222222  0.00000000  3.086420e-03
  0.66666667  0.27777778  0.00000000  3.086420e-03
  0.66666667  0.33333333  0.00000000  3.086420e-03
  0.66666667  0.38888889  0.00000000  3.086420e-03
  0.66666667  0.44444444  0.00000000  3.086420e-03
  0.66666667  0.50000000  0.00000000  3.086420e-03
  0.66666667  0.55555556  0.00000000  3.086420e-03
  0.66666667  0.61111111  0.00000000  3.086420e-03
  0.66666667  0.66666667  0.00000000  3.086420e-03
  0.66666667  0.72222222  0.00000000  3.086420e-03
  0.66666667  0.77777778  0.00000000  3.086420e-03
  0.66666667  0.83333333  0.00000000  3.086420e-03
  0.66666667  0.88888889  0.00000000  3.086420e-03
  0.66666667  0.94444444  0.00000000  3.086420e-03
  0.72222222  0.00000000  0.00000000  3.086420e-03
  0.72222222  0.05555556  0.00000000  3.086420e-03
  0.72222222  0.11111111  0.00000000  3.086420e-03
  0.72222222  0.16666667  0.00000000  3.086420e-03
  0.72222222  0.22222222  0.00000000  3.086420e-03
  0.72222222  0.27777778  0.00000000  3.086420e-03
  0.72222222  0.33333333  0.00000000  3.086420e-03
  0.72222222  0.38888889  0.00000000  3.086420e-03
  0.72222222  0.44444444  0.00000000  3.086420e-03
  0.72222222  0.50000000  0.00000000  3.086420e-03
  0.72222222  0.55555556  0.00000000  3.086420e-03
  0.72222222  0.61111111  0.00000000  3.086420e-03
  0.72222222  0.66666667  0.00000000  3.086420e-03
  0.72222222  0.72222222  0.00000000  3.086420e-03
  0.72222222  0.77777778  0.00000000  3.086420e-03
  0.72222222  0.83333333  0.00000000  3.086420e-03
  0.72222222  0.88888889  0.00000000  3.086420e-03
  0.72222222  0.94444444  0.00000000  3.086420e-03
  0.77777778  0.00000000  0.00000000  3.086420e-03
  0.77777778  0.05555556  0.00000000  3.086420e-03
  0.77777778  0.11111111  0.00000000  3.086420e-03
  0.77777778  0.16666667  0.00000000  3.086420e-03
  0.77777778  0.22222222  0.00000000  3.086420e-03
  0.77777778  0.27777778  0.00000000  3.086420e-03
  0.77777778  0.33333333  0.00000000  3.086420e-03
  0.77777778  0.38888889  0.00000000  3.086420e-03
  0.77777778  0.44444444  0.00000000  3.086420e-03
  0.77777778  0.50000000  0.00000000  3.086420e-03
  0.77777778  0.55555556  0.00000000  3.086420e-03
  0.77777778  0.61111111  0.00000000  3.086420e-03
  0.77777778  0.66666667  0.00000000  3.086420e-03
  0.77777778  0.72222222  0.00000000  3.086420e-03
  0.77777778  0.77777778  0.00000000  3.086420e-03
  0.77777778  0.83333333  0.00000000  3.086420e-03
  0.77777778  0.88888889  0.00000000  3.086420e-03
  0.77777778  0.94444444  0.00000000  3.086420e-03
  0.83333333  0.00000000  0.00000000  3.086420e-03
  0.83333333  0.05555556  0.00000000  3.086420e-03
  0.83333333  0.11111111  0.00000000  3.086420e-03
  0.83333333  0.16666667  0.00000000  3.086420e-03
  0.83333333  0.22222222  0.00000000  3.086420e-03
  0.83333333  0.27777778  0.00000000  3.086420e-03
  0.83333333  0.33333333  0.00000000  3.086420e-03
  0.83333333  0.38888889  0.00000000  3.086420e-03
  0.83333333  0.44444444  0.00000000  3.086420e-03
  0.83333333  0.50000000  0.00000000  3.086420e-03
  0.83333333  0.55555556  0.00000000  3.086420e-03
  0.83333333  0.61111111  0.00000000  3.086420e-03
  0.83333333  0.66666667  0.00000000  3.086420e-03
  0.83333333  0.72222222  0.00000000  3.086420e-03
  0.83333333  0.77777778  0.00000000  3.086420e-03
  0.83333333  0.83333333  0.00000000  3.086420e-03
  0.83333333  0.88888889  0.00000000  3.086420e-03
  0.83333333  0.94444444  0.00000000  3.086420e-03
  0.88888889  0.00000000  0.00000000  3.086420e-03
  0.88888889  0.05555556  0.00000000  3.086420e-03
  0.88888889  0.11111111  0.00000000  3.086420e-03
  0.88888889  0.16666667  0.00000000  3.086420e-03
  0.88888889  0.22222222  0.00000000  3.086420e-03
  0.88888889  0.27777778  0.00000000  3.086420e-03
  0.88888889  0.33333333  0.00000000  3.086420e-03
  0.88888889  0.38888889  0.00000000  3.086420e-03
  0.88888889  0.44444444  0.00000000  3.086420e-03
  0.88888889  0.50000000  0.00000000  3.086420e-03
  0.88888889  0.55555556  0.00000000  3.086420e-03
  0.88888889  0.61111111  0.00000000  3.086420e-03
  0.88888889  0.66666667  0.00000000  3.086420e-03
  0.88888889  0.72222222  0.00000000  3.086420e-03
  0.88888889  0.77777778  0.00000000  3.086420e-03
  0.88888889  0.83333333  0.00000000  3.086420e-03
  0.88888889  0.88888889  0.00000000  3.086420e-03
  0.88888889  0.94444444  0.00000000  3.086420e-03
  0.94444444  0.00000000  0.00000000  3.086420e-03
  0.94444444  0.05555556  0.00000000  3.086420e-03
  0.94444444  0.11111111  0.00000000  3.086420e-03
  0.94444444  0.16666667  0.00000000  3.086420e-03
  0.94444444  0.22222222  0.00000000  3.086420e-03
  0.94444444  0.27777778  0.00000000  3.086420e-03
  0.94444444  0.33333333  0.00000000  3.086420e-03
  0.94444444  0.38888889  0.00000000  3.086420e-03
  0.94444444  0.44444444  0.00000000  3.086420e-03
  0.94444444  0.50000000  0.00000000  3.086420e-03
  0.94444444  0.55555556  0.00000000  3.086420e-03
  0.94444444  0.61111111  0.00000000  3.086420e-03
  0.94444444  0.66666667  0.00000000  3.086420e-03
  0.94444444  0.72222222  0.00000000  3.086420e-03
  0.94444444  0.77777778  0.00000000  3.086420e-03
  0.94444444  0.83333333  0.00000000  3.086420e-03
  0.94444444  0.88888889  0.00000000  3.086420e-03
  0.94444444  0.94444444  0.00000000  3.086420e-03
end kpoints